1616016
49,27,43,13,9,17,56,32,51,21,30,20,2,60,23,0,11,41,31,55,39,4,59,28,5,10,65,25,54,33,45,42,6,37,66,63,40,29,24,22,48,18,53,12,46,3,19,64,44,26,16,8,57,14,7,35,58,15,62,47,1,67,34,50,38,61,36,52,49